tsp_instances/TSP20/instance12.tsp
NODE_COORD_SECTION
0 175 45
1 178 50
2 6 65
3 129 44
4 190 13
5 48 131
6 140 26
7 148 200
8 12 190
9 56 167
10 42 67
11 66 196
12 77 41
13 88 131
14 57 148
15 36 200
16 58 193
17 102 150
18 81 22
19 75 178
