tsp_instances/TSP20/instance12.opt.tour
TOUR_SECTION
1
2
14
18
8
20
12
17
16
9
10
15
6
3
11
13
19
4
7
5
-1